
Gurobi 11.0.0 (win64, C++) logging started Tue Jul 29 23:56:15 2025

Set parameter TokenServer to value "141.76.38.119"
### START HEURISTIC APPROACH APPROACH ###
ProblemVariant: 1
### START PREPROCESSING ###
## Start start solution procedure ##
Not enough vehicles for start solution, copying existing vehicle(s)...
Copied 1 vehicle(s). Total vehicles now: 7
Start solution with 7 Vehicles and total costs 511.391 in 1.14825 s.
### END PREPROCESSING ###
Route 0 0-12-15-0 : weight util 0.550000 | volume util 0.263089 | infeasible with packing heuristic | feasible with CP model
Route 1 0-16-0 : weight util 0.525000 | volume util 0.060511 | infeasible with packing heuristic | feasible with CP model
Route 2 0-10-8-11-13-0 : weight util 0.800000 | volume util 0.411333 | infeasible with packing heuristic | feasible with CP model
Route 3 0-9-7-5-6-0 : weight util 0.950000 | volume util 0.491956 | infeasible with packing heuristic | feasible with CP model
Route 4 0-19-21-0 : weight util 0.800000 | volume util 0.196089 | infeasible with packing heuristic | feasible with CP model
Route 5 0-18-20-17-14-0 : weight util 1.000000 | volume util 0.498622 | infeasible with packing heuristic | feasible with CP model
Route 6 0-2-1-3-4-0 : weight util 1.000000 | volume util 0.312000 | infeasible with packing heuristic | feasible with CP model
